p cnf 133 16
c ind 76 77 78 82 85 95 102 104 131 130 0
c ind 129 73 125 128 74 75 124 127 123 126 0
c ind 108 69 110 109 107 106 122 70 121 120 0
c ind 119 71 118 117 72 115 116 105 114 103 0
c ind 113 79 80 81 112 111 101 100 99 83 0
c ind 84 96 92 97 98 94 90 91 93 89 0
c ind 88 86 87 1 0
c ret 45 46 47 48 49 50 51 12 52 53 0
c ret 54 55 56 57 58 59 60 61 62 63 0
c ret 64 65 66 67 13 68 14 5 15 16 0
c ret 17 18 19 6 20 21 22 23 24 25 0
c ret 7 26 27 28 29 30 8 31 32 33 0
c ret 34 9 35 36 37 10 38 39 40 11 0
c ret 41 42 43 44 0
2 3 -4 -80 -81 0
-2 4 0
-2 80 0
-2 81 0
-2 -3 0
3 -8 -15 -16 -17 0
-3 17 0
-3 8 0
-3 16 0
-3 15 0
4 -72 -79 0
-4 72 0
-4 79 0
1 2 0
-1 -2 0
132 0

